
Gurobi 7.5.2 (linux64) logging started Sat Jul  7 17:01:20 2018

Changed value of parameter LogFile to result/ilp/simNo_1-n_100-m_40-s_4-minVAF_0.05-cov_10000-k_1-fn_0.25-fp_0.0001-na_0.15.ILP.gurobiSolverLog
   Prev: gurobi.log  Default: 
Changed value of parameter TimeLimit to 86400.0
   Prev: 1e+100  Min: 0.0  Max: 1e+100  Default: 1e+100
Optimize a model with 639293 rows, 10765 columns and 1940420 nonzeros
Variable types: 0 continuous, 10765 integer (10765 binary)
Coefficient statistics:
  Matrix range     [2e-05, 4e+00]
  Objective range  [1e+00, 2e+01]
  Bounds range     [1e+00, 1e+00]
  RHS range        [2e-01, 2e+00]
Found heuristic solution: objective -14625.93592
Presolve removed 125184 rows and 974 columns (presolve time = 5s) ...
Presolve removed 127287 rows and 974 columns (presolve time = 10s) ...
Presolve removed 127816 rows and 974 columns (presolve time = 18s) ...
Presolve removed 180716 rows and 1503 columns (presolve time = 20s) ...
Presolve removed 180716 rows and 1503 columns (presolve time = 26s) ...
Presolve removed 180716 rows and 1503 columns
Presolve time: 25.80s
Presolved: 458577 rows, 9262 columns, 1380700 nonzeros
Variable types: 0 continuous, 9262 integer (9262 binary)
Presolved: 9262 rows, 467839 columns, 1389962 nonzeros

Presolve removed 9262 rows and 467839 columns

Root simplex log...

Iteration    Objective       Primal Inf.    Dual Inf.      Time
       0    2.0164516e+01   0.000000e+00   7.466000e+04     31s
   17911   -2.9906412e+02   0.000000e+00   5.774431e+05     35s
   33663   -3.6680239e+02   0.000000e+00   1.759479e+05     40s
   45401   -3.9703859e+02   0.000000e+00   2.570078e+05     45s
   57113   -4.2484895e+02   0.000000e+00   1.691051e+05     50s
   64921   -4.3709890e+02   0.000000e+00   3.113657e+06     55s
   74681   -4.5027068e+02   0.000000e+00   3.458240e+05     60s
   84840   -4.6384028e+02   8.640415e-04   0.000000e+00     66s
   84841   -4.6384028e+02   0.000000e+00   0.000000e+00     66s
   84841   -4.6384028e+02   0.000000e+00   0.000000e+00     68s

Root relaxation: objective -4.638403e+02, 84841 iterations, 39.62 seconds
Total elapsed time = 168.66s
Total elapsed time = 224.28s

    Nodes    |    Current Node    |     Objective Bounds      |     Work
 Expl Unexpl |  Obj  Depth IntInf | Incumbent    BestBd   Gap | It/Node Time

     0     0 -463.84028    0 1769 -14625.936 -463.84028  96.8%     -  303s
H    0     0                    -692.3289453 -463.84028  33.0%     -  307s
H    0     0                    -617.0009735 -463.84028  24.8%     -  309s
     0     0 -467.03373    0 1779 -617.00097 -467.03373  24.3%     -  414s
     0     0 -469.58845    0 1773 -617.00097 -469.58845  23.9%     -  914s
H    0     0                    -606.7821921 -469.58845  22.6%     -  920s
     0     0 -469.69917    0 1919 -606.78219 -469.69917  22.6%     -  928s
     0     0 -470.29712    0 1773 -606.78219 -470.29712  22.5%     -  940s
     0     0 -470.46862    0 1773 -606.78219 -470.46862  22.5%     -  946s
     0     0 -470.47888    0 1773 -606.78219 -470.47888  22.5%     -  952s
     0     0 -470.48385    0 1792 -606.78219 -470.48385  22.5%     -  958s
     0     0 -472.25081    0 1777 -606.78219 -472.25081  22.2%     - 1068s
     0     0 -472.99271    0 1776 -606.78219 -472.99271  22.0%     - 1086s
     0     0 -473.02854    0 1777 -606.78219 -473.02854  22.0%     - 1094s
     0     0 -473.02854    0 1776 -606.78219 -473.02854  22.0%     - 1096s
     0     0 -474.18952    0 1999 -606.78219 -474.18952  21.9%     - 1451s
H    0     0                    -605.5048324 -474.18952  21.7%     - 1456s
     0     0 -474.30276    0 2635 -605.50483 -474.30276  21.7%     - 1479s
     0     0 -474.31957    0 2682 -605.50483 -474.31957  21.7%     - 1501s
     0     0 -474.31957    0 2682 -605.50483 -474.31957  21.7%     - 1506s
     0     0 -475.14583    0 2009 -605.50483 -475.14583  21.5%     - 1586s
H    0     0                    -602.9501130 -475.14583  21.2%     - 1601s
     0     0 -475.20893    0 2656 -602.95011 -475.20893  21.2%     - 1616s
     0     0 -475.21702    0 2696 -602.95011 -475.21702  21.2%     - 1625s
     0     0 -475.23379    0 2706 -602.95011 -475.23379  21.2%     - 1633s
     0     0 -475.23506    0 2711 -602.95011 -475.23506  21.2%     - 1638s
     0     0 -475.23507    0 2717 -602.95011 -475.23507  21.2%     - 1642s
     0     0 -476.84772    0 2690 -602.95011 -476.84772  20.9%     - 1703s
     0     0 -476.99489    0 2699 -602.95011 -476.99489  20.9%     - 1772s
     0     0 -476.99489    0 2708 -602.95011 -476.99489  20.9%     - 1777s
     0     0 -478.21296    0 2002 -602.95011 -478.21296  20.7%     - 1865s
     0     0 -478.72575    0 1910 -602.95011 -478.72575  20.6%     - 1941s
     0     0 -478.73167    0 1910 -602.95011 -478.73167  20.6%     - 1953s
     0     0 -478.73167    0 1914 -602.95011 -478.73167  20.6%     - 1956s
     0     0 -479.41526    0 1909 -602.95011 -479.41526  20.5%     - 2016s
     0     0 -479.95931    0 2672 -602.95011 -479.95931  20.4%     - 2207s
     0     0 -479.99788    0 2673 -602.95011 -479.99788  20.4%     - 2238s
     0     0 -480.14539    0 2699 -602.95011 -480.14539  20.4%     - 2287s
     0     0 -480.16697    0 2705 -602.95011 -480.16697  20.4%     - 2302s
     0     0 -480.16697    0 2706 -602.95011 -480.16697  20.4%     - 2305s
     0     0 -481.24008    0 2002 -602.95011 -481.24008  20.2%     - 2394s
     0     0 -481.39299    0 2016 -602.95011 -481.39299  20.2%     - 2428s
     0     0 -481.56893    0 2008 -602.95011 -481.56893  20.1%     - 2497s
     0     0 -481.58570    0 2013 -602.95011 -481.58570  20.1%     - 2513s
     0     0 -481.58585    0 2014 -602.95011 -481.58585  20.1%     - 2519s
     0     0 -482.72716    0 2670 -602.95011 -482.72716  19.9%     - 2781s
     0     0 -482.97105    0 2671 -602.95011 -482.97105  19.9%     - 2879s
     0     0 -483.14602    0 2701 -602.95011 -483.14602  19.9%     - 2904s
     0     0 -483.19868    0 2703 -602.95011 -483.19868  19.9%     - 2918s
     0     0 -483.19881    0 2705 -602.95011 -483.19881  19.9%     - 2923s
     0     0 -484.17194    0 2682 -602.95011 -484.17194  19.7%     - 3007s
     0     0 -484.37609    0 2694 -602.95011 -484.37609  19.7%     - 3101s
     0     0 -484.51874    0 2702 -602.95011 -484.51874  19.6%     - 3132s
     0     0 -484.52564    0 2693 -602.95011 -484.52564  19.6%     - 3141s
     0     0 -484.54360    0 2699 -602.95011 -484.54360  19.6%     - 3148s
     0     0 -484.54444    0 2699 -602.95011 -484.54444  19.6%     - 3152s
     0     0 -485.89907    0 2712 -602.95011 -485.89907  19.4%     - 3283s
     0     0 -486.47417    0 2031 -602.95011 -486.47417  19.3%     - 3380s
     0     0 -486.58257    0 2692 -602.95011 -486.58257  19.3%     - 3423s
     0     0 -486.58277    0 2694 -602.95011 -486.58277  19.3%     - 3429s
     0     0 -488.18748    0 2696 -602.95011 -488.18748  19.0%     - 4537s
H    0     0                    -601.6727534 -488.18748  18.9%     - 4550s
     0     0 -488.29531    0 2697 -601.67275 -488.29531  18.8%     - 4582s
     0     0 -488.29531    0 2697 -601.67275 -488.29531  18.8%     - 4587s
     0     0 -489.97864    0 2748 -601.67275 -489.97864  18.6%     - 5284s
     0     0 -490.32118    0 2027 -601.67275 -490.32118  18.5%     - 5457s
     0     0 -490.37153    0 2032 -601.67275 -490.37153  18.5%     - 5568s
     0     0 -490.37153    0 2036 -601.67275 -490.37153  18.5%     - 5572s
     0     0 -491.37517    0 1988 -601.67275 -491.37517  18.3%     - 10664s
     0     0 -491.45811    0 2033 -601.67275 -491.45811  18.3%     - 10715s
     0     0 -491.47914    0 2032 -601.67275 -491.47914  18.3%     - 10725s
     0     0 -491.50290    0 2038 -601.67275 -491.50290  18.3%     - 10736s
     0     0 -491.52521    0 2040 -601.67275 -491.52521  18.3%     - 10748s
     0     0 -491.55487    0 2032 -601.67275 -491.55487  18.3%     - 10762s
     0     0 -491.55673    0 2032 -601.67275 -491.55673  18.3%     - 10767s
     0     0 -492.53936    0 2103 -601.67275 -492.53936  18.1%     - 11122s
     0     0 -492.81040    0 2731 -601.67275 -492.81040  18.1%     - 11338s
     0     0 -492.83846    0 2687 -601.67275 -492.83846  18.1%     - 11353s
     0     0 -492.83846    0 2687 -601.67275 -492.83846  18.1%     - 11357s
     0     0 -494.10620    0 2699 -601.67275 -494.10620  17.9%     - 32244s
     0     0 -494.40177    0 2037 -601.67275 -494.40177  17.8%     - 32380s
     0     0 -494.46416    0 2035 -601.67275 -494.46416  17.8%     - 32395s
     0     0 -494.52749    0 2044 -601.67275 -494.52749  17.8%     - 32410s
     0     0 -494.52931    0 2045 -601.67275 -494.52931  17.8%     - 32417s
     0     0 -495.99457    0 2029 -601.67275 -495.99457  17.6%     - 33802s
     0     0 -496.13091    0 2033 -601.67275 -496.13091  17.5%     - 33889s
     0     0 -496.21787    0 2108 -601.67275 -496.21787  17.5%     - 33925s
     0     0 -496.34212    0 2049 -601.67275 -496.34212  17.5%     - 33972s
     0     0 -496.40089    0 2040 -601.67275 -496.40089  17.5%     - 33990s
     0     0 -496.43300    0 2055 -601.67275 -496.43300  17.5%     - 34009s
     0     0 -496.44061    0 2048 -601.67275 -496.44061  17.5%     - 34019s
     0     0 -496.44107    0 2051 -601.67275 -496.44107  17.5%     - 34024s
     0     0 -497.90161    0 2044 -601.67275 -497.90161  17.2%     - 36947s
     0     0 -498.19855    0 2056 -601.67275 -498.19855  17.2%     - 37051s
     0     0 -498.22353    0 2063 -601.67275 -498.22353  17.2%     - 37085s
     0     0 -498.22893    0 2052 -601.67275 -498.22893  17.2%     - 37097s
     0     0 -498.23283    0 2055 -601.67275 -498.23283  17.2%     - 37106s
     0     0 -498.23569    0 2054 -601.67275 -498.23569  17.2%     - 37115s
     0     0 -499.33925    0 2032 -601.67275 -499.33925  17.0%     - 37351s
     0     0 -499.92428    0 2037 -601.67275 -499.92428  16.9%     - 37556s
     0     0 -500.13549    0 2055 -601.67275 -500.13549  16.9%     - 37889s
     0     0 -500.15601    0 2048 -601.67275 -500.15601  16.9%     - 37908s
     0     0 -500.15785    0 2051 -601.67275 -500.15785  16.9%     - 37922s
     0     0 -502.87812    0 1924 -601.67275 -502.87812  16.4%     - 60768s
     0     0 -503.01153    0 1934 -601.67275 -503.01153  16.4%     - 60877s
     0     0 -503.09704    0 1960 -601.67275 -503.09704  16.4%     - 60998s
     0     0 -503.11199    0 2032 -601.67275 -503.11199  16.4%     - 61019s
     0     0 -503.11684    0 2103 -601.67275 -503.11684  16.4%     - 61047s
     0     0 -503.11684    0 2114 -601.67275 -503.11684  16.4%     - 61061s
     0     0 -504.19980    0 2091 -601.67275 -504.19980  16.2%     - 61618s
H    0     0                    -599.1180340 -504.19980  15.8%     - 61662s
     0     0 -504.36024    0 2025 -599.11803 -504.36024  15.8%     - 61704s
     0     0 -504.41447    0 2039 -599.11803 -504.41447  15.8%     - 61745s
     0     0 -504.42022    0 2044 -599.11803 -504.42022  15.8%     - 61754s
     0     0 -504.42095    0 2048 -599.11803 -504.42095  15.8%     - 61760s
     0     0 -505.35916    0 2094 -599.11803 -505.35916  15.6%     - 62318s
     0     0 -505.51042    0 2047 -599.11803 -505.51042  15.6%     - 62426s
     0     0 -505.76556    0 2114 -599.11803 -505.76556  15.6%     - 62524s
     0     0 -505.90088    0 2118 -599.11803 -505.90088  15.6%     - 62665s
     0     0 -505.94746    0 2124 -599.11803 -505.94746  15.6%     - 62694s
     0     0 -505.94746    0 2125 -599.11803 -505.94746  15.6%     - 62698s
     0     0 -506.99656    0 2109 -599.11803 -506.99656  15.4%     - 64865s
     0     0 -507.05859    0 2122 -599.11803 -507.05859  15.4%     - 64923s
     0     0 -507.18294    0 2125 -599.11803 -507.18294  15.3%     - 64943s
     0     0 -507.19801    0 2127 -599.11803 -507.19801  15.3%     - 64962s
     0     0 -507.22150    0 2125 -599.11803 -507.22150  15.3%     - 64974s
     0     0 -507.22150    0 2127 -599.11803 -507.22150  15.3%     - 64977s
     0     0 -507.76058    0 2128 -599.11803 -507.76058  15.2%     - 69487s
H    0     0                    -595.2858590 -507.76058  14.7%     - 69522s
     0     0 -508.02050    0 2124 -595.28586 -508.02050  14.7%     - 69744s
     0     0 -508.19715    0 2116 -595.28586 -508.19715  14.6%     - 69892s
     0     0 -508.27407    0 2125 -595.28586 -508.27407  14.6%     - 69994s
     0     0 -508.27893    0 2122 -595.28586 -508.27893  14.6%     - 70006s
     0     0 -508.28742    0 2131 -595.28586 -508.28742  14.6%     - 70031s
     0     0 -508.29030    0 2128 -595.28586 -508.29030  14.6%     - 70043s
     0     0 -509.72246    0 2121 -595.28586 -509.72246  14.4%     - 72777s
H    0     0                    -594.0084993 -509.72246  14.2%     - 72798s
     0     0 -510.08680    0 2130 -594.00850 -510.08680  14.1%     - 73134s
     0     0 -510.18213    0 2138 -594.00850 -510.18213  14.1%     - 73263s
     0     0 -510.22337    0 2145 -594.00850 -510.22337  14.1%     - 73307s
     0     0 -510.23681    0 2150 -594.00850 -510.23681  14.1%     - 73326s
     0     0 -510.24054    0 2147 -594.00850 -510.24054  14.1%     - 73338s
     0     0 -511.44706    0 2071 -594.00850 -511.44706  13.9%     - 79699s
     0     0 -511.60058    0 2139 -594.00850 -511.60058  13.9%     - 79767s
     0     0 -511.60213    0 2147 -594.00850 -511.60213  13.9%     - 79779s
     0     0 -512.00629    0 2133 -594.00850 -512.00629  13.8%     - 79948s
     0     0 -512.47955    0 2137 -594.00850 -512.47955  13.7%     - 80463s
     0     0 -512.53707    0 2148 -594.00850 -512.53707  13.7%     - 80533s
     0     0 -512.55081    0 2144 -594.00850 -512.55081  13.7%     - 80572s
     0     0 -512.56360    0 2148 -594.00850 -512.56360  13.7%     - 80602s
     0     0 -512.56952    0 2150 -594.00850 -512.56952  13.7%     - 80616s
     0     0 -512.57746    0 2152 -594.00850 -512.57746  13.7%     - 80629s
     0     0 -512.57821    0 2153 -594.00850 -512.57821  13.7%     - 80635s
     0     0 -513.99749    0 2120 -594.00850 -513.99749  13.5%     - 82983s
     0     0 -514.11396    0 2123 -594.00850 -514.11396  13.5%     - 83384s
     0     0 -514.15114    0 2136 -594.00850 -514.15114  13.4%     - 83416s
     0     0 -514.16227    0 2141 -594.00850 -514.16227  13.4%     - 83436s
     0     0 -514.18522    0 2136 -594.00850 -514.18522  13.4%     - 83454s
     0     0 -514.19095    0 2137 -594.00850 -514.19095  13.4%     - 83464s
     0     0 -514.19589    0 2145 -594.00850 -514.19589  13.4%     - 83474s
     0     0 -514.52398    0 2041 -594.00850 -514.52398  13.4%     - 83668s
     0     0 -514.81733    0 2124 -594.00850 -514.81733  13.3%     - 83808s
     0     0 -515.01531    0 2134 -594.00850 -515.01531  13.3%     - 83895s
     0     0 -515.09327    0 2140 -594.00850 -515.09327  13.3%     - 83934s
     0     0 -515.09914    0 2138 -594.00850 -515.09914  13.3%     - 83943s
     0     0 -515.10216    0 2144 -594.00850 -515.10216  13.3%     - 83951s
     0     0 -515.81780    0 2128 -594.00850 -515.81780  13.2%     - 85431s
     0     0 -516.02807    0 2136 -594.00850 -516.02807  13.1%     - 85575s
     0     0 -516.04903    0 2130 -594.00850 -516.04903  13.1%     - 85592s
     0     0 -516.06728    0 2133 -594.00850 -516.06728  13.1%     - 85608s
     0     0 -516.08058    0 2132 -594.00850 -516.08058  13.1%     - 85616s
     0     0 -516.08611    0 2132 -594.00850 -516.08611  13.1%     - 85624s
     0     0 -516.09032    0 2138 -594.00850 -516.09032  13.1%     - 85629s
     0     0 -516.30365    0 2132 -594.00850 -516.30365  13.1%     - 85740s
     0     0 -516.66705    0 2141 -594.00850 -516.66705  13.0%     - 86197s
     0     0 -516.75922    0 2137 -594.00850 -516.75922  13.0%     - 86223s
     0     0 -516.80933    0 2132 -594.00850 -516.80933  13.0%     - 86261s
     0     0 -516.84491    0 2131 -594.00850 -516.84491  13.0%     - 86296s
     0     0 -516.85836    0 2144 -594.00850 -516.85836  13.0%     - 86313s
     0     0 -516.85985    0 2145 -594.00850 -516.85985  13.0%     - 86317s
     0     0          -    0      -594.00850 -516.85985  13.0%     - 86400s

Cutting planes:
  Gomory: 1
  Zero half: 401

Explored 1 nodes (2595780 simplex iterations) in 86400.14 seconds
Thread count was 1 (of 80 available processors)

Solution count 10: -594.008 -595.286 -599.118 ... -14625.9

Time limit reached
Best objective -5.940084992920e+02, best bound -5.168598526696e+02, gap 12.9878%
